
Gurobi 12.0.3 (mac64[arm]) logging started Thu Oct 30 09:34:44 2025

Set parameter LogFile to value "gurobi_minimal.log"
Gurobi Optimizer version 12.0.3 build v12.0.3rc0 (mac64[arm] - Darwin 24.5.0 24F74)

CPU model: Apple M4
Thread count: 10 physical cores, 10 logical processors, using up to 10 threads

Optimize a model with 26 rows, 25 columns and 55 nonzeros
Model fingerprint: 0xe5d4ff51
Variable types: 0 continuous, 25 integer (5 binary)
Coefficient statistics:
  Matrix range     [1e+00, 2e+06]
  Objective range  [5e+04, 5e+04]
  Bounds range     [1e+00, 1e+00]
  RHS range        [1e+00, 5e+11]
Warning: Model contains large rhs
         Consider reformulating model or setting NumericFocus parameter
         to avoid numerical issues.
Found heuristic solution: objective -0.0000000
Presolve removed 26 rows and 25 columns
Presolve time: 0.00s
Presolve: All rows and columns removed

Explored 0 nodes (0 simplex iterations) in 0.00 seconds (0.00 work units)
Thread count was 1 (of 10 available processors)

Solution count 2: 6.75e+06 -0 

Optimal solution found (tolerance 1.00e-04)
Best objective 6.750000000000e+06, best bound 6.750000000000e+06, gap 0.0000%
